12
0 1 C6H6
C                    -1.033149715468     0.943142535565    -0.020127005762
C                    -1.333535690994    -0.423078712218     0.002874283779
C                    -0.300385963923    -1.366221244044     0.023001411729
C                     1.033149710259    -0.943142528508     0.020127124073
C                     1.333535685371     0.423078706561    -0.002874421414
C                     0.300385970797     1.366221242978    -0.023001407340
H                    -1.832423393093     1.672784181427    -0.035697701386
H                    -2.365196439308    -0.750384316333     0.005097875763
H                    -0.532772953887    -2.423168457739     0.040795817856
H                     1.832423402554    -1.672784143539     0.035698171687
H                     2.365196427826     0.750384285048    -0.005098060430
H                     0.532773003045     2.423168447157    -0.040795925654
